RT is False
Default write of storage_offers_DA.csv just to have a file (but constraint should be inactive)
Reading model...
...model read.
creating competitive generators file...
...competitive generators recorded.
Loading data...
.. day-ahead data with real-time VRE data read.
Compiling instance...
...instance created.
Creating Offer Mitigation (model will solve as dispatch if TRUE)...
Solving...

Welcome to IBM(R) ILOG(R) CPLEX(R) Interactive Optimizer 12.9.0.0
  with Simplex, Mixed Integer & Barrier Optimizers
5725-A06 5725-A29 5724-Y48 5724-Y49 5724-Y54 5724-Y55 5655-Y21
Copyright IBM Corp. 1988, 2019.  All Rights Reserved.

Type 'help' for a list of available commands.
Type 'help' followed by a command name for more
information on commands.

CPLEX> Logfile 'cplex.log' closed.
Logfile 'C:\Users\llavin\Desktop\test919\logs\tmpz45775pl.cplex.log' open.
CPLEX> New value for parallel optimization mode: -1
CPLEX> New value for mixed integer optimality gap tolerance: 0.01
CPLEX> New value for integrality tolerance: 1e-09
CPLEX> New value for feasibility tolerance: 0.01
CPLEX> New value for deterministic time limit in ticks: 75000
CPLEX> Problem 'C:\Users\llavin\Desktop\test919\logs\tmp8yyx2p16.pyomo.lp' read.
Read time = 0.06 sec. (3.04 ticks)
CPLEX> Problem name         : C:\Users\llavin\Desktop\test919\logs\tmp8yyx2p16.pyomo.lp
Objective sense      : Minimize
Variables            :   26081  [Nneg: 1,  Box: 21616,  Free: 4464]
Objective nonzeros   :    2496
Linear constraints   :   27515  [Less: 14006,  Greater: 4416,  Equal: 9093]
  Nonzeros           :   89219
  RHS nonzeros       :   12271

Variables            : Min LB: -5000.000        Max UB: 1000000.       
Objective nonzeros   : Min   : 15.73158         Max   : 124.0997       
Linear constraints   :
  Nonzeros           : Min   : 0.8500000        Max   : 3000.000       
  RHS nonzeros       : Min   : 0.4083333        Max   : 5000.000       
CPLEX> CPXPARAM_Parallel                                -1
CPXPARAM_Simplex_Tolerances_Feasibility          0.01
CPXPARAM_DetTimeLimit                            75000
CPXPARAM_MIP_Tolerances_MIPGap                   0.01
CPXPARAM_MIP_Tolerances_Integrality              1.0000000000000001e-09
Parallel mode: opportunistic, using up to 32 threads for concurrent optimization.
Tried aggregator 1 time.
LP Presolve eliminated 21377 rows and 15487 columns.
Aggregator did 751 substitutions.
Reduced LP has 5387 rows, 9843 columns, and 31778 nonzeros.
Presolve time = 0.06 sec. (30.21 ticks)
Symmetry aggregator did 5563 additional substitutions.

Iteration log . . .
Iteration:     1   Dual objective     =             0.000000
Perturbation started.
Iteration:   101   Dual objective     =             0.000000
Iteration:   333   Dual objective     =             1.292118
Iteration:   616   Dual objective     =             1.983452
Iteration:   876   Dual objective     =             2.135059
Iteration:  1085   Dual objective     =             2.253517
Iteration:  1360   Dual objective     =             2.301854
Iteration:  1608   Dual objective     =             2.331058
Iteration:  1832   Dual objective     =             2.356774
Iteration:  2054   Dual objective     =             2.381182
Iteration:  2253   Dual objective     =             2.392407
Iteration:  2492   Dual objective     =         13253.918625
Iteration:  2878   Dual objective     =         18804.116410
Removing perturbation.
Dual superbasis not built.
Using devex.

Primal simplex solved model.


Primal simplex - Optimal:  Objective =  1.8971581678e+04
Solution time =    0.20 sec.  Iterations = 1521 (1012)
Deterministic time = 76.57 ticks  (377.19 ticks/sec)

CPLEX> Solution written to file 'C:\Users\llavin\Desktop\test919\logs\tmpf3ypztc9.cplex.sol'.
CPLEX> Exporting results... 
...storage offer mitigation file created
Converting model to MPEC...
...converted
NOTE: initial MIP solve with only storage competitive to get feasible solution
Solving...

Welcome to IBM(R) ILOG(R) CPLEX(R) Interactive Optimizer 12.9.0.0
  with Simplex, Mixed Integer & Barrier Optimizers
5725-A06 5725-A29 5724-Y48 5724-Y49 5724-Y54 5724-Y55 5655-Y21
Copyright IBM Corp. 1988, 2019.  All Rights Reserved.

Type 'help' for a list of available commands.
Type 'help' followed by a command name for more
information on commands.

CPLEX> Logfile 'cplex.log' closed.
Logfile 'C:\Users\llavin\Desktop\test919\logs\tmp9dsdsj2n.cplex.log' open.
CPLEX> New value for parallel optimization mode: -1
CPLEX> New value for mixed integer optimality gap tolerance: 0.01
CPLEX> New value for integrality tolerance: 1e-09
CPLEX> New value for feasibility tolerance: 0.01
CPLEX> New value for deterministic time limit in ticks: 75000
CPLEX> Problem 'C:\Users\llavin\Desktop\test919\logs\tmpp72b2r_e.pyomo.lp' read.
Read time = 0.25 sec. (14.78 ticks)
CPLEX> Problem name         : C:\Users\llavin\Desktop\test919\logs\tmpp72b2r_e.pyomo.lp
Objective sense      : Maximize
Variables            :   53805  [Nneg: 1,  Box: 22000,  Free: 4464,
                                 Binary: 27340]
Objective nonzeros   :    9029
Linear constraints   :  123205  [Less: 41346,  Greater: 59096,  Equal: 22763]
  Nonzeros           :  291753
  RHS nonzeros       :   67491

Variables            : Min LB: -5000.000        Max UB: 1000000.       
Objective nonzeros   : Min   : 0.4083333        Max   : 2500.000       
Linear constraints   :
  Nonzeros           : Min   : 0.4083333        Max   : 1000000.       
  RHS nonzeros       : Min   : 0.4083333        Max   : 1000000.       
CPLEX> CPXPARAM_Parallel                                -1
CPXPARAM_Simplex_Tolerances_Feasibility          0.01
CPXPARAM_DetTimeLimit                            75000
CPXPARAM_MIP_Tolerances_MIPGap                   0.01
CPXPARAM_MIP_Tolerances_Integrality              1.0000000000000001e-09
Tried aggregator 3 times.
MIP Presolve eliminated 88649 rows and 18973 columns.
MIP Presolve added 3374 rows and 0 columns.
MIP Presolve modified 24876 coefficients.
Aggregator did 12976 substitutions.
Reduced MIP has 24954 rows, 21300 columns, and 71182 nonzeros.
Reduced MIP has 8420 binaries, 0 generals, 0 SOSs, and 0 indicators.
Presolve time = 0.30 sec. (173.54 ticks)
Probing fixed 381 vars, tightened 2866 bounds.
Probing time = 1.20 sec. (904.03 ticks)
Tried aggregator 2 times.
MIP Presolve eliminated 864 rows and 769 columns.
MIP Presolve modified 2213 coefficients.
Aggregator did 37 substitutions.
Reduced MIP has 24053 rows, 20494 columns, and 68569 nonzeros.
Reduced MIP has 8036 binaries, 0 generals, 0 SOSs, and 0 indicators.
Presolve time = 0.09 sec. (69.95 ticks)
Probing time = 0.05 sec. (16.05 ticks)
Clique table members: 6557.
MIP emphasis: balance optimality and feasibility.
MIP search method: dynamic search.
Parallel mode: opportunistic, using up to 32 threads.
Root relaxation solution time = 0.48 sec. (565.86 ticks)

        Nodes                                         Cuts/
   Node  Left     Objective  IInf  Best Integer    Best Bound    ItCnt     Gap

      0     0      786.5790   679                    786.5790     7356         
*     0+    0                          786.5790      786.5790             0.00%
      0     0        cutoff            786.5790      786.5790     7356    0.00%
Elapsed time = 3.98 sec. (3139.87 ticks, tree = 0.01 MB, solutions = 1)

Root node processing (before b&c):
  Real time             =    4.00 sec. (3141.70 ticks)
Parallel b&c, 32 threads:
  Real time             =    0.00 sec. (0.00 ticks)
  Sync time (average)   =    0.00 sec.
  Wait time (average)   =    0.00 sec.
                          ------------
Total (root+branch&cut) =    4.00 sec. (3141.70 ticks)

Solution pool: 1 solution saved.

MIP - Integer optimal solution:  Objective =  7.8657896700e+02
Solution time =    4.02 sec.  Iterations = 7356  Nodes = 0
Deterministic time = 3141.85 ticks  (782.53 ticks/sec)

CPLEX> Incumbent solution written to file 'C:\Users\llavin\Desktop\test919\logs\tmpq0cj38o8.cplex.sol'.
CPLEX> NOTE: no warmstart specified for MIP iteration, default behavior is true
NOTE: resolving with all competitive generators using storage-only solution to warmstart
Solving...

Welcome to IBM(R) ILOG(R) CPLEX(R) Interactive Optimizer 12.9.0.0
  with Simplex, Mixed Integer & Barrier Optimizers
5725-A06 5725-A29 5724-Y48 5724-Y49 5724-Y54 5724-Y55 5655-Y21
Copyright IBM Corp. 1988, 2019.  All Rights Reserved.

Type 'help' for a list of available commands.
Type 'help' followed by a command name for more
information on commands.

CPLEX> Logfile 'cplex.log' closed.
Logfile 'C:\Users\llavin\Desktop\test919\logs\tmpcy103u_2.cplex.log' open.
CPLEX> New value for parallel optimization mode: -1
CPLEX> New value for mixed integer optimality gap tolerance: 0.01
CPLEX> New value for integrality tolerance: 1e-09
CPLEX> New value for feasibility tolerance: 0.01
CPLEX> New value for deterministic time limit in ticks: 75000
CPLEX> Problem 'C:\Users\llavin\Desktop\test919\logs\tmp_davorp5.pyomo.lp' read.
Read time = 0.23 sec. (14.81 ticks)
CPLEX> MIP start file 'C:\Users\llavin\Desktop\test919\logs\tmpy_yef2z8.cplex.mst' read.
CPLEX> Problem name         : C:\Users\llavin\Desktop\test919\logs\tmp_davorp5.pyomo.lp
Objective sense      : Maximize
Variables            :   54525  [Nneg: 1,  Box: 22720,  Free: 4464,
                                 Binary: 27340]
Objective nonzeros   :    9725
Linear constraints   :  123205  [Less: 41346,  Greater: 59096,  Equal: 22763]
  Nonzeros           :  291753
  RHS nonzeros       :   67491

Variables            : Min LB: -5000.000        Max UB: 1000000.       
Objective nonzeros   : Min   : 0.4083333        Max   : 2500.000       
Linear constraints   :
  Nonzeros           : Min   : 0.4083333        Max   : 1000000.       
  RHS nonzeros       : Min   : 0.4083333        Max   : 1000000.       
CPLEX> CPXPARAM_Parallel                                -1
CPXPARAM_Simplex_Tolerances_Feasibility          0.01
CPXPARAM_DetTimeLimit                            75000
CPXPARAM_MIP_Tolerances_MIPGap                   0.01
CPXPARAM_MIP_Tolerances_Integrality              1.0000000000000001e-09
Warning:  No solution found from 1 MIP starts.
Retaining values of one MIP start for possible repair.
Tried aggregator 3 times.
MIP Presolve eliminated 88649 rows and 19693 columns.
MIP Presolve added 3374 rows and 0 columns.
MIP Presolve modified 24876 coefficients.
Aggregator did 12976 substitutions.
Reduced MIP has 24954 rows, 21300 columns, and 71182 nonzeros.
Reduced MIP has 8420 binaries, 0 generals, 0 SOSs, and 0 indicators.
Presolve time = 0.30 sec. (173.89 ticks)
Probing fixed 381 vars, tightened 2866 bounds.
Probing time = 1.23 sec. (904.03 ticks)
Tried aggregator 2 times.
MIP Presolve eliminated 864 rows and 769 columns.
MIP Presolve modified 2213 coefficients.
Aggregator did 37 substitutions.
Reduced MIP has 24053 rows, 20494 columns, and 68569 nonzeros.
Reduced MIP has 8036 binaries, 0 generals, 0 SOSs, and 0 indicators.
Presolve time = 0.11 sec. (69.95 ticks)
Probing time = 0.03 sec. (16.05 ticks)
Clique table members: 6557.
MIP emphasis: balance optimality and feasibility.
MIP search method: dynamic search.
Parallel mode: opportunistic, using up to 32 threads.
Root relaxation solution time = 0.39 sec. (294.57 ticks)

        Nodes                                         Cuts/
   Node  Left     Objective  IInf  Best Integer    Best Bound    ItCnt     Gap

      0     0   102600.0812  1801                 102600.0812     6715         
      0     0    99378.9537   670                   Cuts: 525     6999         
      0     0    99061.5275   613                   Cuts: 149     7093         
      0     0    98874.4112   581                    Cuts: 79     7143         
      0     0    98874.4112   565                    Cuts: 57     7168         
      0     0    98296.3937   540                    Cuts: 60     7207         
      0     0    98196.8300   529                    Cuts: 60     7232         
      0     0    97491.4068   503                    Cuts: 51     7319         
      0     0    97491.4068   502                    Cuts: 61     7346         
      0     0    87303.9835   484                    Cuts: 44     7377         
      0     0    76939.2160   477                    Cuts: 29     7386         
      0     0    76939.2160   477                    Cuts: 34     7396         
Repair heuristic found nothing.
      0    16    infeasible                          Cuts: 19     7718         
Elapsed time = 11.75 sec. (7120.17 ticks, tree = 0.02 MB, solutions = 0)
    404   181    15838.6653   444                  56966.4176    12409         
    897   425   -25504.6054   425                  56966.4176    20033         
   1689   461     4617.8378   365                  56966.4176    20700         
   2352   891   -13726.1243   413                  56966.4176    36058         
   2991  1144    -4077.0654   359                  56966.4176    38535         
   3657  1719   -16463.3871   341                  56966.4176    43639         
   4677  2587   -27274.0186   375                  56966.4176    47995         
   6160  3273    -4977.0129   312                  56966.4176    50027         
   7440  5358    -8442.3383   306                  56966.4176    50889         
  11571  8187   -13477.5808   219                  56966.4176    53219         
Elapsed time = 29.50 sec. (10222.45 ticks, tree = 68.40 MB, solutions = 5)
* 12624  9192      integral     0    -4977.0129    56966.4176    54479     --- 
* 13294  8594      integral     0    -3644.4825    56966.4176    53753     --- 
  14880  2278        cutoff          11205.0239    30405.2251    73480  171.35%
  16612   534    19312.9617    13    11205.0239    23556.2547    85349  110.23%
  17252  1441    16459.1388    16    11205.0239    23008.0593    99293  105.34%
  17772  1338        cutoff          11205.0239    23008.0593    97959  105.34%
  18054  1459    18583.9551     8    11205.0239    23008.0593    99205  105.34%
  18219  1700    18296.2278     9    11205.0239    23008.0593   104571  105.34%
  18485  1829    18011.4998    11    11205.0239    23008.0593   107131  105.34%
  18769  1666    12255.8392    10    11205.0239    23008.0593   104093  105.34%
  19025  2055    15071.3853     7    11205.0239    23008.0593   109477  105.34%
Elapsed time = 56.13 sec. (23778.51 ticks, tree = 11.84 MB, solutions = 13)
  19281  2417    12679.7934    12    11205.0239    23008.0593   115650  105.34%
  19535  2554    infeasible          11205.0239    23008.0593   115946  105.34%
  19762  2401    17373.4219    10    11205.0239    23008.0593   115189  105.34%
  19971  2671        cutoff          11205.0239    23008.0593   116817  105.34%
  20190  2627    11683.9196     7    11205.0239    23008.0593   116709  105.34%
  20349  3141    12679.7934    10    11205.0239    23008.0593   120053  105.34%
  20529  2877    12255.8392    11    11205.0239    23008.0593   118245  105.34%
  20749  3002    infeasible          11205.0239    23008.0593   119372  105.34%
  20962  3131    18102.4286     9    11205.0239    23008.0593   120002  105.34%
  21105  3332    17514.6333     9    11205.0239    23008.0593   121720  105.34%
Elapsed time = 63.77 sec. (33409.03 ticks, tree = 22.95 MB, solutions = 13)
  21318  3501    infeasible          11205.0239    23008.0593   123436  105.34%
  21480  3569    17373.4219     9    11205.0239    23008.0593   123695  105.34%
  21631  3574        cutoff          11205.0239    23008.0593   123749  105.34%
  21767  3577    11469.2602    10    11205.0239    23008.0593   123754  105.34%
  21923  3743    16558.3179     9    11205.0239    23008.0593   124923  105.34%
  22125  3801    13343.4705    11    11205.0239    23008.0593   125223  105.34%
  22251  3668    infeasible          11205.0239    23008.0593   124421  105.34%
  22383  4073        cutoff          11205.0239    23008.0593   126908  105.34%
  22487  4165    18102.4286     9    11205.0239    23008.0593   127362  105.34%
  22630  4162    13892.8686    11    11205.0239    23008.0593   127347  105.34%
Elapsed time = 72.52 sec. (43011.53 ticks, tree = 30.97 MB, solutions = 13)
  22746  4142    infeasible          11205.0239    23008.0593   127230  105.34%
  22883  4147    17530.5089     7    11205.0239    23008.0593   127244  105.34%
  22997  4292    17530.5089     6    11205.0239    23008.0593   128280  105.34%
  23096  4271    11683.9196     9    11205.0239    23008.0593   127933  105.34%
  23209  4271    infeasible          11205.0239    23008.0593   127954  105.34%
  23327  4699    infeasible          11205.0239    23008.0593   131281  105.34%
  23512  4509    infeasible          11205.0239    23008.0593   129857  105.34%
  23636  4314    infeasible          11205.0239    23008.0593   128327  105.34%
  23799  4728    infeasible          11205.0239    23008.0593   131776  105.34%
  23949  4730    15986.3983     9    11205.0239    23008.0593   131797  105.34%
Elapsed time = 78.53 sec. (52680.68 ticks, tree = 36.62 MB, solutions = 13)
  24074  4839    12679.7934    10    11205.0239    23008.0593   132191  105.34%
  24251  4848    12679.7934    11    11205.0239    23008.0593   132210  105.34%
  24418  5218    18741.0421    15    11205.0239    23008.0593   136016  105.34%
  24545  4650    infeasible          11205.0239    23008.0593   130387  105.34%
  24732  4797    17514.6333     7    11205.0239    23008.0593   132030  105.34%
  24866  4797    17514.6333     8    11205.0239    23008.0593   132032  105.34%
  25013  5578    14553.1218     6    11205.0239    23008.0593   137553  105.34%
  25183  4832    17514.6333     8    11205.0239    23008.0593   132292  105.34%
  25344  5401    17402.8048     7    11205.0239    23008.0593   136631  105.34%
  25475  4959    17530.5089     7    11205.0239    23008.0593   133546  105.34%
Elapsed time = 87.86 sec. (62260.90 ticks, tree = 38.99 MB, solutions = 13)
  25647  5033    11683.9196     9    11205.0239    23008.0593   133885  105.34%
  25758  5456    17514.6333     7    11205.0239    23008.0593   137344  105.34%
  25872  5435    17402.8048     6    11205.0239    23008.0593   136688  105.34%
  25995  5254    16473.9373     8    11205.0239    23008.0593   136250  105.34%
  26076  5441    17402.8048     7    11205.0239    23008.0593   136721  105.34%
  26196  5462    11389.0623     8    11205.0239    23008.0593   137828  105.34%
  26322  5449    17402.8048    10    11205.0239    23008.0593   136854  105.34%
  26424  5462        cutoff          11205.0239    23008.0593   137830  105.34%
  26494  5464        cutoff          11205.0239    23008.0593   137937  105.34%
  26553  5730    15498.6176     9    11205.0239    23008.0593   139854  105.34%
Elapsed time = 92.02 sec. (71857.32 ticks, tree = 46.83 MB, solutions = 13)
  26602  5599    11683.9196     9    11205.0239    23008.0593   137646  105.34%
  26635  5624        cutoff          11205.0239    23008.0593   137743  105.34%
  26718  5650    17530.5089     6    11205.0239    23008.0593   137801  105.34%

Clique cuts applied:  3
Cover cuts applied:  20
Implied bound cuts applied:  18
Flow cuts applied:  174
Mixed integer rounding cuts applied:  41
Zero-half cuts applied:  1
Gomory fractional cuts applied:  71

Root node processing (before b&c):
  Real time             =   10.25 sec. (7112.55 ticks)
Parallel b&c, 32 threads:
  Real time             =   82.73 sec. (68640.29 ticks)
  Sync time (average)   =    2.25 sec.
  Wait time (average)   =    0.26 sec.
                          ------------
Total (root+branch&cut) =   92.98 sec. (75752.83 ticks)

Solution pool: 13 solutions saved.

MIP - Deterministic time limit exceeded, integer feasible:  Objective =  1.1205023946e+04
Current MIP best bound =  2.3008059342e+04 (gap = 11803, 105.34%)
Solution time =   93.00 sec.  Iterations = 157184  Nodes = 26728 (6456)
Deterministic time = 75752.99 ticks  (814.55 ticks/sec)

CPLEX> Incumbent solution written to file 'C:\Users\llavin\Desktop\test919\logs\tmp7f5pn064.cplex.sol'.
CPLEX> Exporting results... 
